problems/csplib-prob015/SchursLemma-models/noch/O2/lingeling/model_1_4-5-15-solution000001.eprime-solution
language ESSENCE' 1.0

letting boxes_PartitionOccurrence_FirstIndex be [1, 2, 7, 9, 14; int(1..5)]
letting boxes_PartitionOccurrence_NumParts be 5
letting boxes_PartitionOccurrence_PartSizes be [5, 3, 4, 2, 1; int(1..5)]
letting boxes_PartitionOccurrence_WhichPart be [1, 2, 1, 2, 2, 1, 3, 3, 4, 3, 3, 4, 1, 5, 1; int(1..15)]
