problems/csplib-prob015/SchursLemma-models/noch/O2/lingeling/model_1_4-5-15-solution000001.solution
language Essence 1.3

letting boxes be partition({1, 3, 6, 13, 15}, {2, 4, 5}, {7, 8, 10, 11}, {9, 12}, {14})
